
===== New CPLEX run =====
Instance: /home/yorig/tuner/mpils-tests/instances/miplib/easy/supportcase33.mps
Config: /scratch/yorig/mpils-results-grid-seconds-5-watchdog-mip-start/easy/8proc/seed-4/10_supportcase33_seed-4_20260504_032501/expansion/config_param_CPXPARAM_MIP_Strategy_NodeSelect_2_iter_1.prm
========================

Selected objective sense:  MINIMIZE
Selected objective  name:  obj
Selected RHS        name:  rhs
Selected bound      name:  bnd
Wall watchdog: enabled factor=1 grace=1 limit=6 seconds
Version identifier: 22.1.2.0 | 2024-11-26 | 0edbb82fd
CPXPARAM_Threads                                 8
CPXPARAM_Parallel                                1
CPXPARAM_MIP_Cuts_Cliques                        3
CPXPARAM_MIP_Strategy_NodeSelect                 2
CPXPARAM_MIP_Cuts_Implied                        -1
CPXPARAM_MIP_Cuts_GUBCovers                      -1
CPXPARAM_MIP_Limits_GomoryCand                   800
CPXPARAM_MIP_Cuts_Gomory                         2
CPXPARAM_MIP_Cuts_PathCut                        -1
CPXPARAM_MIP_Cuts_MIRCut                         2
CPXPARAM_MIP_Cuts_Disjunctive                    3
CPXPARAM_Emphasis_MIP                            4
CPXPARAM_TimeLimit                               5
Found incumbent of value 0.000000 after 0.00 sec. (2.20 ticks)
Tried aggregator 2 times.
MIP Presolve eliminated 17556 rows and 13423 columns.
MIP Presolve modified 14568 coefficients.
Aggregator did 11 substitutions.
Reduced MIP has 2922 rows, 6763 columns, and 53605 nonzeros.
Reduced MIP has 6683 binaries, 80 generals, 0 SOSs, and 0 indicators.
Presolve time = 0.09 sec. (158.17 ticks)
Probing fixed 667 vars, tightened 0 bounds.
Probing changed sense of 39 constraints.
Probing time = 0.17 sec. (249.39 ticks)
Tried aggregator 2 times.
Detecting symmetries...
MIP Presolve eliminated 639 rows and 667 columns.
MIP Presolve modified 197 coefficients.
Aggregator did 7 substitutions.
Reduced MIP has 2276 rows, 6089 columns, and 46722 nonzeros.
Reduced MIP has 6009 binaries, 80 generals, 0 SOSs, and 0 indicators.
Presolve time = 0.03 sec. (37.79 ticks)
Probing fixed 1 vars, tightened 0 bounds.
Probing time = 0.03 sec. (37.88 ticks)
Clique table members: 25145.
MIP emphasis: hidden feasible solutions.
MIP search method: dynamic search.
Parallel mode: deterministic, using up to 8 threads.
Root relaxation solution time = 0.06 sec. (117.15 ticks)

        Nodes                                         Cuts/
   Node  Left     Objective  IInf  Best Integer    Best Bound    ItCnt     Gap

*     0+    0                            0.0000    -1075.0000              --- 
      0     0     -462.8425   108        0.0000     -462.8425     1467     --- 
*     0+    0                         -155.0000     -462.8425           198.61%
      0     0     -442.5000   138     -155.0000     Cuts: 173     2013  185.48%
      0     0     -440.0000   115     -155.0000     Cuts: 171     2355  183.87%
*     0+    0                         -215.0000     -440.0000           104.65%
      0     0     -440.0000    87     -215.0000      Cuts: 39     2611  104.65%
*     0+    0                         -235.0000     -440.0000            87.23%
      0     0  -1.00000e+75     0     -235.0000     -440.0000     2611   87.23%
      0     0     -425.0000   104     -235.0000      Cuts: 33     2853   80.85%
      0     0     -425.0000   109     -235.0000     Cuts: 126     3219   80.85%
Detecting symmetries...
*     0+    0                         -270.0000     -425.0000            57.41%
      0     0     -425.0000    89     -270.0000      Cuts: 72     3724   57.41%
      0     0     -425.0000    91     -270.0000     Cuts: 135     4050   57.41%
Detecting symmetries...
      0     2     -425.0000    67     -270.0000     -425.0000     4050   57.41%
Elapsed time = 2.14 sec. (3064.15 ticks, tree = 0.02 MB, solutions = 4)
    143   100     -340.0000    32     -270.0000     -421.8864    10334   56.25%
    366   191     -345.0000    28     -270.0000     -420.0000    20543   55.56%
    590   327     -326.8689    48     -270.0000     -420.0000    32624   55.56%
*   634   357      integral     0     -285.0000     -420.0000    36527   47.37%
    643   340     -328.3333    77     -285.0000     -420.0000    37323   47.37%
    829   389        cutoff           -285.0000     -419.9666    43823   47.36%
*   918   398      integral     0     -290.0000     -419.9666    43499   44.82%
   1194   521     -304.8140    71     -290.0000     -419.9666    52231   44.82%
*  1435+  669                         -310.0000     -419.9666            35.47%
*  1443+  656                         -330.0000     -419.9666            27.26%
   1571   778     -349.5833    92     -330.0000     -419.9666    65395   27.26%
*  1839   285      integral     0     -340.0000     -419.9666    75678   23.52%
   1921   230    infeasible           -340.0000     -419.9666    82620   23.52%
   2118   190     -360.0000    68     -340.0000     -419.9666    88486   23.52%
   3435   285    infeasible           -340.0000     -419.9561   132331   23.52%
Elapsed time = 4.11 sec. (6174.18 ticks, tree = 3.39 MB, solutions = 10)
   4141   409        cutoff           -340.0000     -419.9561   168488   23.52%

Clique cuts applied:  5
Cover cuts applied:  42
Mixed integer rounding cuts applied:  186
Zero-half cuts applied:  24
Gomory fractional cuts applied:  14
Disjunctive cuts applied:  2
Cone linearizations applied:  0

Root node processing (before b&c):
  Real time             =    2.10 sec. (3034.02 ticks)
Parallel b&c, 8 threads:
  Real time             =    2.91 sec. (4519.10 ticks)
  Sync time (average)   =    0.58 sec.
  Wait time (average)   =    0.00 sec.
                          ------------
Total (root+branch&cut) =    5.01 sec. (7553.12 ticks)
Gap: 23.52%
Upper bound: -340
Lower bound: -419.956
Termination status: Normal
End of CPLEX run. Time: 5.00984 seconds

===== New CPLEX run =====
Instance: /home/yorig/tuner/mpils-tests/instances/miplib/easy/supportcase33.mps
Config: /scratch/yorig/mpils-results-grid-seconds-5-watchdog-mip-start/easy/8proc/seed-4/10_supportcase33_seed-4_20260504_032501/expansion/config_param_CPXPARAM_MIP_Strategy_NodeSelect_3_iter_1.prm
========================

Selected objective sense:  MINIMIZE
Selected objective  name:  obj
Selected RHS        name:  rhs
Selected bound      name:  bnd
Wall watchdog: enabled factor=1 grace=1 limit=6 seconds
Version identifier: 22.1.2.0 | 2024-11-26 | 0edbb82fd
CPXPARAM_Threads                                 8
CPXPARAM_Parallel                                1
CPXPARAM_MIP_Cuts_Cliques                        3
CPXPARAM_MIP_Strategy_NodeSelect                 3
CPXPARAM_MIP_Cuts_Implied                        -1
CPXPARAM_MIP_Cuts_GUBCovers                      -1
CPXPARAM_MIP_Limits_GomoryCand                   800
CPXPARAM_MIP_Cuts_Gomory                         2
CPXPARAM_MIP_Cuts_PathCut                        -1
CPXPARAM_MIP_Cuts_MIRCut                         2
CPXPARAM_MIP_Cuts_Disjunctive                    3
CPXPARAM_Emphasis_MIP                            4
CPXPARAM_TimeLimit                               5
Found incumbent of value 0.000000 after 0.00 sec. (2.20 ticks)
Tried aggregator 2 times.
MIP Presolve eliminated 17556 rows and 13423 columns.
MIP Presolve modified 14568 coefficients.
Aggregator did 11 substitutions.
Reduced MIP has 2922 rows, 6763 columns, and 53605 nonzeros.
Reduced MIP has 6683 binaries, 80 generals, 0 SOSs, and 0 indicators.
Presolve time = 0.09 sec. (158.17 ticks)
Probing fixed 667 vars, tightened 0 bounds.
Probing changed sense of 39 constraints.
Probing time = 0.17 sec. (249.39 ticks)
Tried aggregator 2 times.
Detecting symmetries...
MIP Presolve eliminated 639 rows and 667 columns.
MIP Presolve modified 197 coefficients.
Aggregator did 7 substitutions.
Reduced MIP has 2276 rows, 6089 columns, and 46722 nonzeros.
Reduced MIP has 6009 binaries, 80 generals, 0 SOSs, and 0 indicators.
Presolve time = 0.03 sec. (37.79 ticks)
Probing fixed 1 vars, tightened 0 bounds.
Probing time = 0.03 sec. (37.88 ticks)
Clique table members: 25145.
MIP emphasis: hidden feasible solutions.
MIP search method: dynamic search.
Parallel mode: deterministic, using up to 8 threads.
Root relaxation solution time = 0.06 sec. (117.15 ticks)

        Nodes                                         Cuts/
   Node  Left     Objective  IInf  Best Integer    Best Bound    ItCnt     Gap

*     0+    0                            0.0000    -1075.0000              --- 
      0     0     -462.8425   108        0.0000     -462.8425     1467     --- 
*     0+    0                         -155.0000     -462.8425           198.61%
      0     0     -442.5000   138     -155.0000     Cuts: 173     2013  185.48%
      0     0     -440.0000   115     -155.0000     Cuts: 171     2355  183.87%
*     0+    0                         -215.0000     -440.0000           104.65%
      0     0     -440.0000    86     -215.0000      Cuts: 39     2601  104.65%
*     0+    0                         -235.0000     -440.0000            87.23%
      0     0  -1.00000e+75     0     -235.0000     -440.0000     2601   87.23%
      0     0     -425.0000    74     -235.0000      Cuts: 34     2793   80.85%
      0     0     -425.0000   102     -235.0000     Cuts: 125     3118   80.85%
Detecting symmetries...
*     0+    0                         -255.0000     -425.0000            66.67%
      0     0     -425.0000    70     -255.0000       Cuts: 3     3328   66.67%
*     0+    0                         -275.0000     -425.0000            54.55%
      0     0  -1.00000e+75     0     -275.0000     -425.0000     3328   54.55%
      0     0     -425.0000    94     -275.0000      Cuts: 33     3665   54.55%
*     0+    0                         -285.0000     -425.0000            49.12%
*     0+    0                         -310.0000     -425.0000            37.10%
Detecting symmetries...
      0     2     -425.0000    82     -310.0000     -425.0000     3665   37.10%
Elapsed time = 2.07 sec. (2877.25 ticks, tree = 0.02 MB, solutions = 7)
    115    54     -363.6792    56     -310.0000     -420.0000     8861   35.48%
    381   165     -395.0000    70     -310.0000     -418.8303    20150   35.11%
*   474   197      integral     0     -320.0000     -418.8303    21564   30.88%
    617   262    infeasible           -320.0000     -418.8303    28518   30.88%
    696   301     -345.0000    58     -320.0000     -418.8303    30681   30.88%
   1024   447    infeasible           -320.0000     -418.8303    40329   30.88%
   1424   585     -367.6712    62     -320.0000     -418.8303    53646   30.88%
   1976   680     -330.0000    25     -320.0000     -418.8303    64405   30.88%
   2531   712     -330.0000    34     -320.0000     -418.8303    75592   30.88%
   3093   641     -330.0000    53     -320.0000     -418.8303    86182   30.88%
*  4900   332      integral     0     -325.0000     -418.8303   116882   28.87%
   5543   318    infeasible           -325.0000     -418.8303   128002   28.87%
Elapsed time = 4.21 sec. (6002.28 ticks, tree = 3.66 MB, solutions = 9)
*  5551   316      integral     0     -335.0000     -418.8303   126103   25.02%
*  6288   174      integral     0     -340.0000     -418.8303   142353   23.19%
   7361   111     -405.0000    75     -340.0000     -418.8303   166443   23.19%

Clique cuts applied:  5
Cover cuts applied:  56
Mixed integer rounding cuts applied:  88
Zero-half cuts applied:  12
Gomory fractional cuts applied:  8
Disjunctive cuts applied:  1
Cone linearizations applied:  0

Root node processing (before b&c):
  Real time             =    2.03 sec. (2850.84 ticks)
Parallel b&c, 8 threads:
  Real time             =    2.97 sec. (4407.35 ticks)
  Sync time (average)   =    0.68 sec.
  Wait time (average)   =    0.00 sec.
                          ------------
Total (root+branch&cut) =    5.01 sec. (7258.19 ticks)
Gap: 23.19%
Upper bound: -340
Lower bound: -418.83
Termination status: Normal
End of CPLEX run. Time: 5.01083 seconds

===== New CPLEX run =====
Instance: /home/yorig/tuner/mpils-tests/instances/miplib/easy/supportcase33.mps
Config: /scratch/yorig/mpils-results-grid-seconds-5-watchdog-mip-start/easy/8proc/seed-4/10_supportcase33_seed-4_20260504_032501/expansion/config_param_CPXPARAM_MIP_Strategy_Dive_1_iter_1.prm
========================

Selected objective sense:  MINIMIZE
Selected objective  name:  obj
Selected RHS        name:  rhs
Selected bound      name:  bnd
Wall watchdog: enabled factor=1 grace=1 limit=6 seconds
Version identifier: 22.1.2.0 | 2024-11-26 | 0edbb82fd
CPXPARAM_Threads                                 8
CPXPARAM_Parallel                                1
CPXPARAM_MIP_Cuts_Cliques                        3
CPXPARAM_MIP_Cuts_Implied                        -1
CPXPARAM_MIP_Cuts_GUBCovers                      -1
CPXPARAM_MIP_Limits_GomoryCand                   800
CPXPARAM_MIP_Cuts_Gomory                         2
CPXPARAM_MIP_Cuts_PathCut                        -1
CPXPARAM_MIP_Cuts_MIRCut                         2
CPXPARAM_MIP_Cuts_Disjunctive                    3
CPXPARAM_Emphasis_MIP                            4
CPXPARAM_MIP_Strategy_Dive                       1
CPXPARAM_TimeLimit                               5
Found incumbent of value 0.000000 after 0.00 sec. (2.20 ticks)
Tried aggregator 2 times.
MIP Presolve eliminated 17556 rows and 13423 columns.
MIP Presolve modified 14568 coefficients.
Aggregator did 11 substitutions.
Reduced MIP has 2922 rows, 6763 columns, and 53605 nonzeros.
Reduced MIP has 6683 binaries, 80 generals, 0 SOSs, and 0 indicators.
Presolve time = 0.09 sec. (158.17 ticks)
Probing fixed 667 vars, tightened 0 bounds.
Probing changed sense of 39 constraints.
Probing time = 0.17 sec. (249.39 ticks)
Tried aggregator 2 times.
Detecting symmetries...
MIP Presolve eliminated 639 rows and 667 columns.
MIP Presolve modified 197 coefficients.
Aggregator did 7 substitutions.
Reduced MIP has 2276 rows, 6089 columns, and 46722 nonzeros.
Reduced MIP has 6009 binaries, 80 generals, 0 SOSs, and 0 indicators.
Presolve time = 0.03 sec. (37.79 ticks)
Probing fixed 1 vars, tightened 0 bounds.
Probing time = 0.03 sec. (37.88 ticks)
Clique table members: 25145.
MIP emphasis: hidden feasible solutions.
MIP search method: dynamic search.
Parallel mode: deterministic, using up to 8 threads.
Root relaxation solution time = 0.06 sec. (117.15 ticks)

        Nodes                                         Cuts/
   Node  Left     Objective  IInf  Best Integer    Best Bound    ItCnt     Gap

*     0+    0                            0.0000    -1075.0000              --- 
      0     0     -462.8425   108        0.0000     -462.8425     1467     --- 
*     0+    0                         -155.0000     -462.8425           198.61%
      0     0     -442.5000   138     -155.0000     Cuts: 173     2013  185.48%
      0     0     -440.0000   115     -155.0000     Cuts: 171     2355  183.87%
*     0+    0                         -215.0000     -440.0000           104.65%
      0     0     -440.0000    87     -215.0000      Cuts: 39     2611  104.65%
*     0+    0                         -235.0000     -440.0000            87.23%
      0     0  -1.00000e+75     0     -235.0000     -440.0000     2611   87.23%
      0     0     -425.0000   104     -235.0000      Cuts: 33     2853   80.85%
*     0+    0                         -260.0000     -425.0000            63.46%
      0     0     -425.0000   107     -260.0000     Cuts: 126     3250   63.46%
Detecting symmetries...
      0     0     -425.0000    79     -260.0000      Cuts: 61     3352   63.46%
*     0+    0                         -285.0000     -425.0000            49.12%
      0     0  -1.00000e+75     0     -285.0000     -425.0000     3352   49.12%
      0     0     -425.0000    80     -285.0000      Cuts: 86     3767   49.12%
Detecting symmetries...
      0     2     -424.4677    98     -285.0000     -425.0000     3767   49.12%
Elapsed time = 2.53 sec. (3597.82 ticks, tree = 0.02 MB, solutions = 5)
*    42+    7                         -310.0000     -420.0000            35.48%
     88    60     -405.0000    47     -310.0000     -420.0000     8415   35.48%
    205   159     -366.6667    71     -310.0000     -420.0000    20744   35.48%
    297   234     -340.0000    34     -310.0000     -420.0000    29414   35.48%
    355   251     -405.0000    42     -310.0000     -420.0000    32316   35.48%
    720   422     -404.6485   106     -310.0000     -420.0000    40684   35.48%
    973   638     -315.0000    28     -310.0000     -405.0000    50658   30.65%
   1200   789     -405.0000    49     -310.0000     -405.0000    58153   30.65%
   1394   911     -343.2609    35     -310.0000     -405.0000    68998   30.65%
   1502  1006     -325.0000    28     -310.0000     -405.0000    76732   30.65%
   2378  1533        cutoff           -310.0000     -405.0000   115765   30.65%
Elapsed time = 4.52 sec. (6711.23 ticks, tree = 20.17 MB, solutions = 7)
*  2868+ 1637                         -315.0000     -405.0000            28.57%

Clique cuts applied:  5
Cover cuts applied:  61
Mixed integer rounding cuts applied:  236
Zero-half cuts applied:  8
Gomory fractional cuts applied:  12
Disjunctive cuts applied:  2
Cone linearizations applied:  0

Root node processing (before b&c):
  Real time             =    2.49 sec. (3569.35 ticks)
Parallel b&c, 8 threads:
  Real time             =    2.52 sec. (3926.18 ticks)
  Sync time (average)   =    0.52 sec.
  Wait time (average)   =    0.00 sec.
                          ------------
Total (root+branch&cut) =    5.01 sec. (7495.53 ticks)
Gap: 28.57%
Upper bound: -315
Lower bound: -405
Termination status: Normal
End of CPLEX run. Time: 5.00937 seconds

===== New CPLEX run =====
Instance: /home/yorig/tuner/mpils-tests/instances/miplib/easy/supportcase33.mps
Config: /scratch/yorig/mpils-results-grid-seconds-5-watchdog-mip-start/easy/8proc/seed-4/10_supportcase33_seed-4_20260504_032501/expansion/config_param_CPXPARAM_MIP_Strategy_Dive_2_iter_1.prm
========================

Selected objective sense:  MINIMIZE
Selected objective  name:  obj
Selected RHS        name:  rhs
Selected bound      name:  bnd
Wall watchdog: enabled factor=1 grace=1 limit=6 seconds
Version identifier: 22.1.2.0 | 2024-11-26 | 0edbb82fd
CPXPARAM_Threads                                 8
CPXPARAM_Parallel                                1
CPXPARAM_MIP_Cuts_Cliques                        3
CPXPARAM_MIP_Cuts_Implied                        -1
CPXPARAM_MIP_Cuts_GUBCovers                      -1
CPXPARAM_MIP_Limits_GomoryCand                   800
CPXPARAM_MIP_Cuts_Gomory                         2
CPXPARAM_MIP_Cuts_PathCut                        -1
CPXPARAM_MIP_Cuts_MIRCut                         2
CPXPARAM_MIP_Cuts_Disjunctive                    3
CPXPARAM_Emphasis_MIP                            4
CPXPARAM_MIP_Strategy_Dive                       2
CPXPARAM_TimeLimit                               5
Found incumbent of value 0.000000 after 0.00 sec. (2.20 ticks)
Tried aggregator 2 times.
MIP Presolve eliminated 17556 rows and 13423 columns.
MIP Presolve modified 14568 coefficients.
Aggregator did 11 substitutions.
Reduced MIP has 2922 rows, 6763 columns, and 53605 nonzeros.
Reduced MIP has 6683 binaries, 80 generals, 0 SOSs, and 0 indicators.
Presolve time = 0.09 sec. (158.17 ticks)
Probing fixed 667 vars, tightened 0 bounds.
Probing changed sense of 39 constraints.
Probing time = 0.17 sec. (249.39 ticks)
Tried aggregator 2 times.
Detecting symmetries...
MIP Presolve eliminated 639 rows and 667 columns.
MIP Presolve modified 197 coefficients.
Aggregator did 7 substitutions.
Reduced MIP has 2276 rows, 6089 columns, and 46722 nonzeros.
Reduced MIP has 6009 binaries, 80 generals, 0 SOSs, and 0 indicators.
Presolve time = 0.03 sec. (37.79 ticks)
Probing fixed 1 vars, tightened 0 bounds.
Probing time = 0.03 sec. (37.88 ticks)
Clique table members: 25145.
MIP emphasis: hidden feasible solutions.
MIP search method: dynamic search.
Parallel mode: deterministic, using up to 8 threads.
Root relaxation solution time = 0.06 sec. (117.15 ticks)

        Nodes                                         Cuts/
   Node  Left     Objective  IInf  Best Integer    Best Bound    ItCnt     Gap

*     0+    0                            0.0000    -1075.0000              --- 
      0     0     -462.8425   108        0.0000     -462.8425     1467     --- 
*     0+    0                         -155.0000     -462.8425           198.61%
      0     0     -442.5000   138     -155.0000     Cuts: 173     2013  185.48%
      0     0     -440.0000   115     -155.0000     Cuts: 171     2355  183.87%
*     0+    0                         -215.0000     -440.0000           104.65%
      0     0     -440.0000    87     -215.0000      Cuts: 39     2611  104.65%
*     0+    0                         -235.0000     -440.0000            87.23%
      0     0  -1.00000e+75     0     -235.0000     -440.0000     2611   87.23%
      0     0     -425.0000   104     -235.0000      Cuts: 33     2853   80.85%
*     0+    0                         -260.0000     -425.0000            63.46%
      0     0     -425.0000   107     -260.0000     Cuts: 126     3250   63.46%
Detecting symmetries...
      0     0     -425.0000    79     -260.0000      Cuts: 61     3352   63.46%
*     0+    0                         -285.0000     -425.0000            49.12%
      0     0  -1.00000e+75     0     -285.0000     -425.0000     3352   49.12%
      0     0     -425.0000    80     -285.0000      Cuts: 86     3767   49.12%
Detecting symmetries...
      0     2     -424.4677    98     -285.0000     -425.0000     3767   49.12%
Elapsed time = 2.53 sec. (3597.82 ticks, tree = 0.02 MB, solutions = 5)
*    44+    7                         -310.0000     -420.0000            35.48%
     85    51     -397.8571    57     -310.0000     -420.0000     9078   35.48%
    263   102     -333.0831    54     -310.0000     -420.0000    23767   35.48%
    372   133     -330.0000    32     -310.0000     -411.5493    29365   32.76%
    467   165     -365.0000    39     -310.0000     -405.0000    35724   30.65%
    675   205     -405.0000    84     -310.0000     -405.0000    42228   30.65%
    872   291     -405.0000    52     -310.0000     -405.0000    53473   30.65%
   1025   329     -383.2486    55     -310.0000     -405.0000    63323   30.65%
   1167   362     -404.3706    64     -310.0000     -405.0000    70557   30.65%
   1337   399     -401.0260    70     -310.0000     -405.0000    78918   30.65%
   2029   572     -349.2885    64     -310.0000     -405.0000   118936   30.65%
Elapsed time = 4.54 sec. (6731.36 ticks, tree = 6.47 MB, solutions = 7)

Clique cuts applied:  6
Cover cuts applied:  47
Mixed integer rounding cuts applied:  231
Zero-half cuts applied:  8
Gomory fractional cuts applied:  12
Disjunctive cuts applied:  2
Cone linearizations applied:  0

Root node processing (before b&c):
  Real time             =    2.49 sec. (3569.22 ticks)
Parallel b&c, 8 threads:
  Real time             =    2.52 sec. (3850.70 ticks)
  Sync time (average)   =    0.57 sec.
  Wait time (average)   =    0.00 sec.
                          ------------
Total (root+branch&cut) =    5.01 sec. (7419.92 ticks)
Gap: 27.42%
Upper bound: -310
Lower bound: -395
Termination status: Normal
End of CPLEX run. Time: 5.01127 seconds

===== New CPLEX run =====
Instance: /home/yorig/tuner/mpils-tests/instances/miplib/easy/supportcase33.mps
Config: /scratch/yorig/mpils-results-grid-seconds-5-watchdog-mip-start/easy/8proc/seed-4/10_supportcase33_seed-4_20260504_032501/expansion/config_param_CPXPARAM_MIP_Strategy_Dive_3_iter_1.prm
========================

Selected objective sense:  MINIMIZE
Selected objective  name:  obj
Selected RHS        name:  rhs
Selected bound      name:  bnd
Wall watchdog: enabled factor=1 grace=1 limit=6 seconds
Version identifier: 22.1.2.0 | 2024-11-26 | 0edbb82fd
CPXPARAM_Threads                                 8
CPXPARAM_Parallel                                1
CPXPARAM_MIP_Cuts_Cliques                        3
CPXPARAM_MIP_Cuts_Implied                        -1
CPXPARAM_MIP_Cuts_GUBCovers                      -1
CPXPARAM_MIP_Limits_GomoryCand                   800
CPXPARAM_MIP_Cuts_Gomory                         2
CPXPARAM_MIP_Cuts_PathCut                        -1
CPXPARAM_MIP_Cuts_MIRCut                         2
CPXPARAM_MIP_Cuts_Disjunctive                    3
CPXPARAM_Emphasis_MIP                            4
CPXPARAM_MIP_Strategy_Dive                       3
CPXPARAM_TimeLimit                               5
Found incumbent of value 0.000000 after 0.00 sec. (2.20 ticks)
Tried aggregator 2 times.
MIP Presolve eliminated 17556 rows and 13423 columns.
MIP Presolve modified 14568 coefficients.
Aggregator did 11 substitutions.
Reduced MIP has 2922 rows, 6763 columns, and 53605 nonzeros.
Reduced MIP has 6683 binaries, 80 generals, 0 SOSs, and 0 indicators.
Presolve time = 0.09 sec. (158.17 ticks)
Probing fixed 667 vars, tightened 0 bounds.
Probing changed sense of 39 constraints.
Probing time = 0.17 sec. (249.39 ticks)
Tried aggregator 2 times.
Detecting symmetries...
MIP Presolve eliminated 639 rows and 667 columns.
MIP Presolve modified 197 coefficients.
Aggregator did 7 substitutions.
Reduced MIP has 2276 rows, 6089 columns, and 46722 nonzeros.
Reduced MIP has 6009 binaries, 80 generals, 0 SOSs, and 0 indicators.
Presolve time = 0.03 sec. (37.79 ticks)
Probing fixed 1 vars, tightened 0 bounds.
Probing time = 0.03 sec. (37.88 ticks)
Clique table members: 25145.
MIP emphasis: hidden feasible solutions.
MIP search method: dynamic search.
Parallel mode: deterministic, using up to 8 threads.
Root relaxation solution time = 0.06 sec. (117.15 ticks)

        Nodes                                         Cuts/
   Node  Left     Objective  IInf  Best Integer    Best Bound    ItCnt     Gap

*     0+    0                            0.0000    -1075.0000              --- 
      0     0     -462.8425   108        0.0000     -462.8425     1467     --- 
*     0+    0                         -155.0000     -462.8425           198.61%
      0     0     -442.5000   138     -155.0000     Cuts: 173     2013  185.48%
      0     0     -440.0000   115     -155.0000     Cuts: 171     2355  183.87%
*     0+    0                         -215.0000     -440.0000           104.65%
      0     0     -440.0000    87     -215.0000      Cuts: 39     2611  104.65%
*     0+    0                         -235.0000     -440.0000            87.23%
      0     0  -1.00000e+75     0     -235.0000     -440.0000     2611   87.23%
      0     0     -425.0000   104     -235.0000      Cuts: 33     2853   80.85%
*     0+    0                         -260.0000     -425.0000            63.46%
      0     0     -425.0000   107     -260.0000     Cuts: 126     3250   63.46%
Detecting symmetries...
      0     0     -425.0000    79     -260.0000      Cuts: 61     3352   63.46%
*     0+    0                         -285.0000     -425.0000            49.12%
      0     0  -1.00000e+75     0     -285.0000     -425.0000     3352   49.12%
      0     0     -425.0000    80     -285.0000      Cuts: 86     3767   49.12%
Detecting symmetries...
      0     2     -424.4677    98     -285.0000     -425.0000     3767   49.12%
Elapsed time = 2.53 sec. (3597.82 ticks, tree = 0.02 MB, solutions = 5)
*    39+    7                         -310.0000     -420.0000            35.48%
    122    66     -380.6492    68     -310.0000     -418.3755     9881   34.96%
    266   152     -332.4038    98     -310.0000     -418.3755    20456   34.96%
*   374   218      integral     0     -315.0000     -418.3755    32132   32.82%
    386   219     -325.0000    35     -315.0000     -417.3626    30186   32.50%
    449   220     -380.0000    39     -315.0000     -417.3626    35207   32.50%
    701   378    infeasible           -315.0000     -405.0000    45758   28.57%
*   715   361      integral     0     -340.0000     -405.0000    44891   19.12%
    971   386     -349.9774    65     -340.0000     -405.0000    54860   19.12%
   1206   541     -365.0000    49     -340.0000     -405.0000    65888   19.12%
   1351   612     -385.5448    70     -340.0000     -405.0000    72065   19.12%
   2358   843    infeasible           -340.0000     -400.8844   110217   17.91%
Elapsed time = 4.38 sec. (6497.45 ticks, tree = 12.26 MB, solutions = 9)
   3400   982        cutoff           -340.0000     -379.2624   144206   11.55%

Clique cuts applied:  5
Cover cuts applied:  67
Mixed integer rounding cuts applied:  283
Zero-half cuts applied:  9
Gomory fractional cuts applied:  15
Disjunctive cuts applied:  2
Cone linearizations applied:  0

Root node processing (before b&c):
  Real time             =    2.49 sec. (3569.49 ticks)
Parallel b&c, 8 threads:
  Real time             =    2.52 sec. (3903.09 ticks)
  Sync time (average)   =    0.51 sec.
  Wait time (average)   =    0.00 sec.
                          ------------
Total (root+branch&cut) =    5.01 sec. (7472.57 ticks)
Gap: 9.45%
Upper bound: -340
Lower bound: -372.143
Termination status: Normal
End of CPLEX run. Time: 5.00966 seconds

===== New CPLEX run =====
Instance: /home/yorig/tuner/mpils-tests/instances/miplib/easy/supportcase33.mps
Config: /scratch/yorig/mpils-results-grid-seconds-5-watchdog-mip-start/easy/8proc/seed-4/10_supportcase33_seed-4_20260504_032501/expansion/config_param_CPXPARAM_MIP_Limits_ProbeTime_0_iter_1.prm
========================

Selected objective sense:  MINIMIZE
Selected objective  name:  obj
Selected RHS        name:  rhs
Selected bound      name:  bnd
Wall watchdog: enabled factor=1 grace=1 limit=6 seconds
Version identifier: 22.1.2.0 | 2024-11-26 | 0edbb82fd
CPXPARAM_Threads                                 8
CPXPARAM_Parallel                                1
CPXPARAM_MIP_Cuts_Cliques                        3
CPXPARAM_MIP_Cuts_Implied                        -1
CPXPARAM_MIP_Cuts_GUBCovers                      -1
CPXPARAM_MIP_Limits_GomoryCand                   800
CPXPARAM_MIP_Cuts_Gomory                         2
CPXPARAM_MIP_Cuts_PathCut                        -1
CPXPARAM_MIP_Cuts_MIRCut                         2
CPXPARAM_MIP_Cuts_Disjunctive                    3
CPXPARAM_Emphasis_MIP                            4
CPXPARAM_TimeLimit                               5
CPXPARAM_MIP_Limits_ProbeTime                    0
Found incumbent of value 0.000000 after 0.00 sec. (2.20 ticks)
Tried aggregator 2 times.
MIP Presolve eliminated 17556 rows and 13423 columns.
MIP Presolve modified 14568 coefficients.
Aggregator did 11 substitutions.
Reduced MIP has 2922 rows, 6763 columns, and 53605 nonzeros.
Reduced MIP has 6683 binaries, 80 generals, 0 SOSs, and 0 indicators.
Presolve time = 0.09 sec. (158.17 ticks)
Tried aggregator 1 time.
Detecting symmetries...
Reduced MIP has 2922 rows, 6763 columns, and 53605 nonzeros.
Reduced MIP has 6683 binaries, 80 generals, 0 SOSs, and 0 indicators.
Presolve time = 0.02 sec. (28.12 ticks)
Clique table members: 538.
MIP emphasis: hidden feasible solutions.
MIP search method: dynamic search.
Parallel mode: deterministic, using up to 8 threads.
Root relaxation solution time = 0.04 sec. (83.78 ticks)

        Nodes                                         Cuts/
   Node  Left     Objective  IInf  Best Integer    Best Bound    ItCnt     Gap

*     0+    0                            0.0000    -1075.0000              --- 
      0     0     -465.0000    98        0.0000     -465.0000     1212     --- 
*     0+    0                          -40.0000     -465.0000              --- 
      0     0     -465.0000    97      -40.0000      Cuts: 51     1361     --- 
*     0+    0                         -100.0000     -465.0000           365.00%
      0     0     -465.0000   116     -100.0000      Cuts: 54     2286  365.00%
      0     0     -464.9644   125     -100.0000      Cuts: 16     2802  364.96%
*     0+    0                         -205.0000     -464.9644           126.81%
      0     0     -460.0000   143     -205.0000      Cuts: 71     3337  124.39%
      0     0     -450.0000   124     -205.0000      Cuts: 55     3899  119.51%
Detecting symmetries...
      0     0     -450.0000   118     -205.0000     Cuts: 146     4184  119.51%
      0     0     -450.0000   140     -205.0000      Cuts: 95     4565  119.51%
*     0+    0                         -230.0000     -450.0000            95.65%
      0     0  -1.00000e+75     0     -230.0000     -450.0000     4565   95.65%
Detecting symmetries...
      0     2     -450.0000    99     -230.0000     -450.0000     4888   95.65%
Elapsed time = 2.31 sec. (3682.33 ticks, tree = 0.02 MB, solutions = 4)
      1     3     -447.0071   109     -230.0000     -450.0000     5656   95.65%
*    21+    6                         -240.0000     -450.0000            87.50%
    130    51     -269.8261    35     -240.0000     -442.3137     9204   84.30%
    293   141     -402.8261    73     -240.0000     -440.5000    14709   83.54%
*   305+    4                         -255.0000     -440.5000            72.75%
    356   190     -387.8261    84     -255.0000     -438.0000    17430   71.76%
    603   293     -395.9132    82     -255.0000     -438.0000    23800   71.76%
    873   554     -324.7413    88     -255.0000     -438.0000    34786   71.76%
   1123   674    infeasible           -255.0000     -438.0000    40305   71.76%
   1297   825     -386.4070   112     -255.0000     -438.0000    47471   71.76%
*  1364+  670                         -260.0000     -438.0000            68.46%
   1416   956     -314.8810   104     -260.0000     -438.0000    53838   68.46%
   2363  1597     -276.0000    33     -260.0000     -438.0000    89941   68.46%
Elapsed time = 4.33 sec. (6849.27 ticks, tree = 37.09 MB, solutions = 8)
   2905  2072     -411.6667    74     -260.0000     -427.0189   114329   64.24%

Clique cuts applied:  4
Cover cuts applied:  83
Mixed integer rounding cuts applied:  83
Zero-half cuts applied:  15
Gomory fractional cuts applied:  3
Disjunctive cuts applied:  1
Cone linearizations applied:  0

Root node processing (before b&c):
  Real time             =    2.24 sec. (3585.80 ticks)
Parallel b&c, 8 threads:
  Real time             =    2.76 sec. (4376.54 ticks)
  Sync time (average)   =    0.69 sec.
  Wait time (average)   =    0.00 sec.
                          ------------
Total (root+branch&cut) =    5.01 sec. (7962.34 ticks)
Gap: 64.1%
Upper bound: -260
Lower bound: -426.667
Termination status: Normal
End of CPLEX run. Time: 5.00947 seconds

===== New CPLEX run =====
Instance: /home/yorig/tuner/mpils-tests/instances/miplib/easy/supportcase33.mps
Config: /scratch/yorig/mpils-results-grid-seconds-5-watchdog-mip-start/easy/8proc/seed-4/10_supportcase33_seed-4_20260504_032501/expansion/config_param_CPXPARAM_MIP_Limits_ProbeTime_1_iter_1.prm
========================

Selected objective sense:  MINIMIZE
Selected objective  name:  obj
Selected RHS        name:  rhs
Selected bound      name:  bnd
Wall watchdog: enabled factor=1 grace=1 limit=6 seconds
Version identifier: 22.1.2.0 | 2024-11-26 | 0edbb82fd
CPXPARAM_Threads                                 8
CPXPARAM_Parallel                                1
CPXPARAM_MIP_Cuts_Cliques                        3
CPXPARAM_MIP_Cuts_Implied                        -1
CPXPARAM_MIP_Cuts_GUBCovers                      -1
CPXPARAM_MIP_Limits_GomoryCand                   800
CPXPARAM_MIP_Cuts_Gomory                         2
CPXPARAM_MIP_Cuts_PathCut                        -1
CPXPARAM_MIP_Cuts_MIRCut                         2
CPXPARAM_MIP_Cuts_Disjunctive                    3
CPXPARAM_Emphasis_MIP                            4
CPXPARAM_TimeLimit                               5
CPXPARAM_MIP_Limits_ProbeTime                    1
Found incumbent of value 0.000000 after 0.00 sec. (2.20 ticks)
Tried aggregator 2 times.
MIP Presolve eliminated 17556 rows and 13423 columns.
MIP Presolve modified 14568 coefficients.
Aggregator did 11 substitutions.
Reduced MIP has 2922 rows, 6763 columns, and 53605 nonzeros.
Reduced MIP has 6683 binaries, 80 generals, 0 SOSs, and 0 indicators.
Presolve time = 0.09 sec. (158.17 ticks)
Probing fixed 667 vars, tightened 0 bounds.
Probing changed sense of 39 constraints.
Probing time = 0.17 sec. (255.87 ticks)
Tried aggregator 2 times.
Detecting symmetries...
MIP Presolve eliminated 639 rows and 667 columns.
MIP Presolve modified 197 coefficients.
Aggregator did 7 substitutions.
Reduced MIP has 2276 rows, 6089 columns, and 46722 nonzeros.
Reduced MIP has 6009 binaries, 80 generals, 0 SOSs, and 0 indicators.
Presolve time = 0.03 sec. (37.79 ticks)
Probing fixed 17 vars, tightened 0 bounds.
Probing time = 0.18 sec. (256.45 ticks)
Cover probing fixed 0 vars, tightened 2 bounds.
Clique table members: 24375.
Tightened 2 constraints.
MIP emphasis: hidden feasible solutions.
MIP search method: dynamic search.
Parallel mode: deterministic, using up to 8 threads.
Root relaxation solution time = 0.06 sec. (103.28 ticks)

        Nodes                                         Cuts/
   Node  Left     Objective  IInf  Best Integer    Best Bound    ItCnt     Gap

*     0+    0                            0.0000    -1075.0000              --- 
      0     0     -462.8425   116        0.0000     -462.8425     1325     --- 
*     0+    0                         -115.0000     -462.8425           302.47%
      0     0     -445.6250   123     -115.0000     Cuts: 168     1807  287.50%
      0     0     -440.0000   102     -115.0000     Cuts: 166     2270  282.61%
*     0+    0                         -245.0000     -440.0000            79.59%
      0     0     -440.0000   112     -245.0000      Cuts: 91     2873   79.59%
      0     0     -440.0000    80     -245.0000      Cuts: 12     3139   79.59%
      0     0     -440.0000    94     -245.0000     Cuts: 159     3642   79.59%
Detecting symmetries...
*     0+    0                         -275.0000     -440.0000            60.00%
Detecting symmetries...
      0     2     -440.0000    68     -275.0000     -440.0000     3642   60.00%
Elapsed time = 2.05 sec. (3322.45 ticks, tree = 0.02 MB, solutions = 3)
      9     4     -435.4930   103     -275.0000     -440.0000     6210   60.00%
*    18+    1                         -295.0000     -440.0000            49.15%
     62    32     -438.6194    80     -295.0000     -440.0000    16641   49.15%
    157    73     -356.9048   125     -295.0000     -440.0000    26804   49.15%
    204   114     -315.4520    54     -295.0000     -440.0000    34642   49.15%
    271   151     -339.1318   115     -295.0000     -440.0000    40165   49.15%
*   352   167      integral     0     -320.0000     -440.0000    44755   37.50%
    419   218     -336.4286   106     -320.0000     -440.0000    51713   37.50%
    570   259     -335.0000    47     -320.0000     -440.0000    60734   37.50%
    761   358     -385.0000    65     -320.0000     -435.0000    75108   35.94%
    929   472     -365.0000    41     -320.0000     -435.0000    95929   35.94%
   1653   852     -325.0000    29     -320.0000     -420.0000   156435   31.25%
Elapsed time = 4.02 sec. (6450.56 ticks, tree = 2.39 MB, solutions = 5)
   2291  1317     -371.0329    60     -320.0000     -405.0000   220005   26.56%

Clique cuts applied:  12
Cover cuts applied:  81
Mixed integer rounding cuts applied:  141
Zero-half cuts applied:  13
Gomory fractional cuts applied:  2
Disjunctive cuts applied:  2
Cone linearizations applied:  0

Root node processing (before b&c):
  Real time             =    2.01 sec. (3295.04 ticks)
Parallel b&c, 8 threads:
  Real time             =    2.99 sec. (4681.74 ticks)
  Sync time (average)   =    0.57 sec.
  Wait time (average)   =    0.00 sec.
                          ------------
Total (root+branch&cut) =    5.01 sec. (7976.78 ticks)
Gap: 26.56%
Upper bound: -320
Lower bound: -405
Termination status: Normal
End of CPLEX run. Time: 5.01093 seconds
